5551351
31,63,51,16,32,68,44,20,64,23,19,5,6,8,36,12,38,56,54,57,22,33,28,59,37,41,2,40,21,18,60,4,15,17,58,55,42,50,9,65,48,25,43,34,11,26,46,30,3,13,27,35,39,62,10,61,47,67,1,45,66,49,53,24,29,7,52,14